0000000000000000
0000000000000000
0000000000000000
0000000010000000
0000000010000000
0000001111111110
0000000000000111
0000000000000100
0000000110000100
0000001000000110
0000011000001000
0000001000001000
0000010000001100
0000000000011000
0000000000000000
0000000000000000
